NAME          
ROWS
 N  OBJ
 L  c1
 L  c2
 L  c3
COLUMNS
    MARKER    'MARKER'                 'INTORG'
    x[1]      c1        27
    x[1]      c2        290
    x[1]      c3        956
    x[1]      OBJ       -683
    x[2]      c1        743
    x[2]      c2        850
    x[2]      c3        763
    x[2]      OBJ       -795
    x[3]      c1        376
    x[3]      c2        165
    x[3]      c3        440
    x[3]      OBJ       -44
    x[4]      c1        710
    x[4]      c2        75
    x[4]      c3        107
    x[4]      OBJ       -446
    x[5]      c1        304
    x[5]      c2        820
    x[5]      c3        949
    x[5]      OBJ       -460
    x[6]      c1        13
    x[6]      c2        402
    x[6]      c3        176
    x[6]      OBJ       -880
    x[7]      c1        458
    x[7]      c2        592
    x[7]      c3        352
    x[7]      OBJ       -991
    x[8]      c1        680
    x[8]      c2        964
    x[8]      c3        329
    x[8]      OBJ       -757
    x[9]      c1        222
    x[9]      c2        357
    x[9]      c3        470
    x[9]      OBJ       -440
    x[10]     c1        984
    x[10]     c2        412
    x[10]     c3        929
    x[10]     OBJ       -849
    x[11]     c1        966
    x[11]     c2        715
    x[11]     c3        612
    x[11]     OBJ       -843
    x[12]     c1        876
    x[12]     c2        693
    x[12]     c3        750
    x[12]     OBJ       -28
    x[13]     c1        399
    x[13]     c2        306
    x[13]     c3        487
    x[13]     OBJ       -444
    x[14]     c1        373
    x[14]     c2        873
    x[14]     c3        907
    x[14]     OBJ       -525
    x[15]     c1        623
    x[15]     c2        26
    x[15]     c3        496
    x[15]     OBJ       -331
    x[16]     c1        147
    x[16]     c2        405
    x[16]     c3        143
    x[16]     OBJ       -279
    x[17]     c1        70
    x[17]     c2        712
    x[17]     c3        809
    x[17]     OBJ       -980
    x[18]     c1        833
    x[18]     c2        449
    x[18]     c3        9
    x[18]     OBJ       -739
    x[19]     c1        98
    x[19]     c2        286
    x[19]     c3        557
    x[19]     OBJ       -568
    x[20]     c1        44
    x[20]     c2        35
    x[20]     c3        292
    x[20]     OBJ       -455
    x[21]     c1        25
    x[21]     c2        355
    x[21]     c3        897
    x[21]     OBJ       -215
    x[22]     c1        397
    x[22]     c2        73
    x[22]     c3        718
    x[22]     OBJ       -705
    x[23]     c1        390
    x[23]     c2        667
    x[23]     c3        40
    x[23]     OBJ       -818
    x[24]     c1        155
    x[24]     c2        424
    x[24]     c3        375
    x[24]     OBJ       -728
    x[25]     c1        795
    x[25]     c2        874
    x[25]     c3        10
    x[25]     OBJ       -200
    x[26]     c1        300
    x[26]     c2        718
    x[26]     c3        982
    x[26]     OBJ       -267
    x[27]     c1        128
    x[27]     c2        413
    x[27]     c3        46
    x[27]     OBJ       -933
    x[28]     c1        930
    x[28]     c2        998
    x[28]     c3        141
    x[28]     OBJ       -601
    x[29]     c1        605
    x[29]     c2        636
    x[29]     c3        437
    x[29]     OBJ       -144
    x[30]     c1        792
    x[30]     c2        778
    x[30]     c3        737
    x[30]     OBJ       -314
RHS
    rhs       c1        6732
    rhs       c2        7682
    rhs       c3        7458
RANGES
BOUNDS
 LO bounds    x[1]      0
 PL bounds    x[1]
 LO bounds    x[2]      0
 PL bounds    x[2]
 LO bounds    x[3]      0
 PL bounds    x[3]
 LO bounds    x[4]      0
 PL bounds    x[4]
 LO bounds    x[5]      0
 PL bounds    x[5]
 LO bounds    x[6]      0
 PL bounds    x[6]
 LO bounds    x[7]      0
 PL bounds    x[7]
 LO bounds    x[8]      0
 PL bounds    x[8]
 LO bounds    x[9]      0
 PL bounds    x[9]
 LO bounds    x[10]     0
 PL bounds    x[10]
 LO bounds    x[11]     0
 PL bounds    x[11]
 LO bounds    x[12]     0
 PL bounds    x[12]
 LO bounds    x[13]     0
 PL bounds    x[13]
 LO bounds    x[14]     0
 PL bounds    x[14]
 LO bounds    x[15]     0
 PL bounds    x[15]
 LO bounds    x[16]     0
 PL bounds    x[16]
 LO bounds    x[17]     0
 PL bounds    x[17]
 LO bounds    x[18]     0
 PL bounds    x[18]
 LO bounds    x[19]     0
 PL bounds    x[19]
 LO bounds    x[20]     0
 PL bounds    x[20]
 LO bounds    x[21]     0
 PL bounds    x[21]
 LO bounds    x[22]     0
 PL bounds    x[22]
 LO bounds    x[23]     0
 PL bounds    x[23]
 LO bounds    x[24]     0
 PL bounds    x[24]
 LO bounds    x[25]     0
 PL bounds    x[25]
 LO bounds    x[26]     0
 PL bounds    x[26]
 LO bounds    x[27]     0
 PL bounds    x[27]
 LO bounds    x[28]     0
 PL bounds    x[28]
 LO bounds    x[29]     0
 PL bounds    x[29]
 LO bounds    x[30]     0
 PL bounds    x[30]
ENDATA
